Maximize 
+ C(1) + C(2) + C(3) + C(4) + C(5) + C(6) + C(7) + C(8) + C(9) + C(10) + C(11) + C(12) + C(13) + C(14) + C(15) + C(16) + C(17) + C(18) + C(19) + C(20) + C(21) + C(22) + C(23) + C(24) + C(25) + C(26) + C(27) + C(28) + C(29) + C(30) + C(31) + C(32) + C(33) + C(34) + C(35) + C(36) + C(37) + C(38) + C(39) + C(40) + C(41) + C(42) + C(43) + C(44) + C(45) + C(46) + C(47) + C(48) + C(49) + C(50) + C(51) + C(52) + C(53) + C(54) + C(55) + C(56) + C(57) 
such that 

C(1) + C(8) <= 1
C(1) + C(15) <= 1
C(1) + C(17) <= 1
C(1) + C(20) <= 1
C(1) + C(23) <= 1
C(1) + C(24) <= 1
C(1) + C(33) <= 1
C(1) + C(38) <= 1
C(1) + C(43) <= 1
C(1) + C(44) <= 1
C(2) + C(7) <= 1
C(2) + C(9) <= 1
C(2) + C(17) <= 1
C(2) + C(19) <= 1
C(2) + C(25) <= 1
C(2) + C(29) <= 1
C(2) + C(31) <= 1
C(2) + C(40) <= 1
C(2) + C(52) <= 1
C(2) + C(53) <= 1
C(3) + C(10) <= 1
C(3) + C(17) <= 1
C(3) + C(23) <= 1
C(3) + C(24) <= 1
C(3) + C(37) <= 1
C(3) + C(40) <= 1
C(3) + C(45) <= 1
C(3) + C(53) <= 1
C(3) + C(54) <= 1
C(3) + C(55) <= 1
C(4) + C(10) <= 1
C(4) + C(19) <= 1
C(4) + C(26) <= 1
C(4) + C(28) <= 1
C(4) + C(31) <= 1
C(4) + C(32) <= 1
C(4) + C(33) <= 1
C(4) + C(50) <= 1
C(5) + C(11) <= 1
C(5) + C(13) <= 1
C(5) + C(36) <= 1
C(5) + C(40) <= 1
C(5) + C(56) <= 1
C(6) + C(8) <= 1
C(6) + C(15) <= 1
C(6) + C(18) <= 1
C(6) + C(42) <= 1
C(6) + C(43) <= 1
C(6) + C(45) <= 1
C(6) + C(55) <= 1
C(7) + C(8) <= 1
C(7) + C(17) <= 1
C(7) + C(24) <= 1
C(7) + C(26) <= 1
C(7) + C(44) <= 1
C(7) + C(46) <= 1
C(7) + C(47) <= 1
C(8) + C(15) <= 1
C(8) + C(25) <= 1
C(8) + C(32) <= 1
C(8) + C(39) <= 1
C(8) + C(57) <= 1
C(9) + C(10) <= 1
C(9) + C(14) <= 1
C(9) + C(21) <= 1
C(9) + C(23) <= 1
C(9) + C(34) <= 1
C(9) + C(37) <= 1
C(9) + C(50) <= 1
C(9) + C(53) <= 1
C(10) + C(13) <= 1
C(10) + C(17) <= 1
C(10) + C(29) <= 1
C(10) + C(37) <= 1
C(10) + C(39) <= 1
C(10) + C(43) <= 1
C(11) + C(17) <= 1
C(11) + C(18) <= 1
C(11) + C(32) <= 1
C(11) + C(41) <= 1
C(11) + C(44) <= 1
C(11) + C(52) <= 1
C(11) + C(57) <= 1
C(12) + C(16) <= 1
C(12) + C(25) <= 1
C(12) + C(31) <= 1
C(12) + C(40) <= 1
C(12) + C(43) <= 1
C(12) + C(47) <= 1
C(12) + C(48) <= 1
C(12) + C(50) <= 1
C(12) + C(56) <= 1
C(13) + C(24) <= 1
C(13) + C(25) <= 1
C(13) + C(33) <= 1
C(13) + C(50) <= 1
C(13) + C(53) <= 1
C(13) + C(57) <= 1
C(14) + C(18) <= 1
C(14) + C(25) <= 1
C(14) + C(47) <= 1
C(14) + C(54) <= 1
C(15) + C(45) <= 1
C(15) + C(52) <= 1
C(15) + C(54) <= 1
C(16) + C(39) <= 1
C(16) + C(49) <= 1
C(17) + C(18) <= 1
C(17) + C(22) <= 1
C(17) + C(25) <= 1
C(17) + C(27) <= 1
C(17) + C(30) <= 1
C(17) + C(45) <= 1
C(17) + C(51) <= 1
C(18) + C(20) <= 1
C(18) + C(22) <= 1
C(18) + C(30) <= 1
C(18) + C(31) <= 1
C(18) + C(32) <= 1
C(18) + C(33) <= 1
C(18) + C(43) <= 1
C(18) + C(51) <= 1
C(19) + C(20) <= 1
C(19) + C(28) <= 1
C(19) + C(42) <= 1
C(20) + C(24) <= 1
C(20) + C(33) <= 1
C(20) + C(51) <= 1
C(20) + C(52) <= 1
C(21) + C(23) <= 1
C(21) + C(30) <= 1
C(21) + C(42) <= 1
C(21) + C(43) <= 1
C(21) + C(44) <= 1
C(21) + C(57) <= 1
C(22) + C(25) <= 1
C(22) + C(40) <= 1
C(22) + C(44) <= 1
C(22) + C(47) <= 1
C(22) + C(49) <= 1
C(23) + C(43) <= 1
C(23) + C(46) <= 1
C(23) + C(54) <= 1
C(23) + C(55) <= 1
C(24) + C(26) <= 1
C(24) + C(33) <= 1
C(24) + C(35) <= 1
C(25) + C(28) <= 1
C(25) + C(39) <= 1
C(25) + C(41) <= 1
C(25) + C(42) <= 1
C(25) + C(45) <= 1
C(25) + C(52) <= 1
C(25) + C(55) <= 1
C(26) + C(29) <= 1
C(26) + C(39) <= 1
C(26) + C(48) <= 1
C(26) + C(54) <= 1
C(27) + C(41) <= 1
C(27) + C(43) <= 1
C(27) + C(45) <= 1
C(27) + C(47) <= 1
C(27) + C(57) <= 1
C(28) + C(37) <= 1
C(28) + C(43) <= 1
C(28) + C(54) <= 1
C(28) + C(55) <= 1
C(29) + C(37) <= 1
C(29) + C(51) <= 1
C(30) + C(36) <= 1
C(30) + C(41) <= 1
C(30) + C(46) <= 1
C(30) + C(55) <= 1
C(31) + C(32) <= 1
C(31) + C(42) <= 1
C(31) + C(43) <= 1
C(31) + C(48) <= 1
C(31) + C(50) <= 1
C(31) + C(52) <= 1
C(32) + C(33) <= 1
C(32) + C(36) <= 1
C(32) + C(38) <= 1
C(32) + C(39) <= 1
C(32) + C(53) <= 1
C(33) + C(42) <= 1
C(33) + C(49) <= 1
C(34) + C(36) <= 1
C(34) + C(47) <= 1
C(34) + C(57) <= 1
C(35) + C(37) <= 1
C(35) + C(41) <= 1
C(35) + C(42) <= 1
C(35) + C(55) <= 1
C(37) + C(38) <= 1
C(37) + C(46) <= 1
C(37) + C(55) <= 1
C(38) + C(50) <= 1
C(38) + C(53) <= 1
C(39) + C(47) <= 1
C(39) + C(53) <= 1
C(40) + C(47) <= 1
C(40) + C(49) <= 1
C(41) + C(46) <= 1
C(41) + C(49) <= 1
C(41) + C(57) <= 1
C(42) + C(44) <= 1
C(42) + C(53) <= 1
C(42) + C(55) <= 1
C(43) + C(48) <= 1
C(43) + C(49) <= 1
C(44) + C(48) <= 1
C(46) + C(53) <= 1
C(49) + C(56) <= 1
C(50) + C(55) <= 1
C(51) + C(53) <= 1
C(51) + C(56) <= 1
C(51) + C(57) <= 1
C(53) + C(55) <= 1
binary 
C(1)
C(2)
C(3)
C(4)
C(5)
C(6)
C(7)
C(8)
C(9)
C(10)
C(11)
C(12)
C(13)
C(14)
C(15)
C(16)
C(17)
C(18)
C(19)
C(20)
C(21)
C(22)
C(23)
C(24)
C(25)
C(26)
C(27)
C(28)
C(29)
C(30)
C(31)
C(32)
C(33)
C(34)
C(35)
C(36)
C(37)
C(38)
C(39)
C(40)
C(41)
C(42)
C(43)
C(44)
C(45)
C(46)
C(47)
C(48)
C(49)
C(50)
C(51)
C(52)
C(53)
C(54)
C(55)
C(56)
C(57)
end